outputs/case_79.model.txt
audit_committee_total_members = 0
audit_committee_approval_votes = 0
board_of_directors_total = 0
audit_committee_established = False
board_of_directors_votes = 0
internal_control_executed = True
internal_control_established = True
audit_system_established = True
board_of_directors_approved = True
solicitation_handling_executed = True
solicitation_handling_established = True
audit_system_executed = True
internal_control_approval = True
embezzle_insurance_funds = False
unauthorized_business_suspension = False
fail_to_fill_solicitation_report = False
agent_report_compliance = True
improper_insurance_payment = False
violate_disclosure_rules = False
unauthorized_use_of_advertisement = False
other_violations = False
reporting_guidelines_followed = True
illegal_commission_collection = False
violate_consumer_data_rules = False
not_ensure_suitability = False
audit_committee_approval = True
fail_to_report_agent_changes = False
financial_consumer_suitability_violation = False
internal_control_compliance = True
criminal_conviction = False
damage_insurance_image = False
induce_policy_surrender = False
hire_unqualified_solicitors = False
agent_resignation_reported_within_15_days = True
assist_formal_appearance_violation = False
false_license_application = False
fail_to_confirm_consumer_suitability = False
license_lending = False
violate_compensation_system_rules = False
unauthorized_document_transfer = False
agent_add_or_change_reported_within_7_days = True
violate_advertising_rules = False
disrupt_financial_order = False
sell_unapproved_foreign_policies = False
financial_consumer_protection_violation = False
false_financial_reports = False
coerce_or_induce_clients = False
unauthorized_insurance_business = False
internal_control_compliance_full = True
unauthorized_third_party_operation = False
agent_license_revoked_within_15_days = True
penalty = False
conflict_of_interest = False
not_fully_understand_consumer_data = False
pay_commission_to_non_solicitors = False
fail_to_cancel_license_on_resignation = False
insurance_agent_misconduct = False
operate_outside_license_scope = False
conceal_important_contract_info = False
misleading_advertisement = False
induce_contract_termination = False